21° run output:
{
    "Function": "kroA500.tsp",
    "Problem dimension": [
        262,
        377,
        444,
        184,
        38,
        309,
        239,
        325,
        204,
        267,
        57,
        259,
        94,
        382,
        117,
        249,
        459,
        332,
        287,
        157,
        7,
        348,
        66,
        210,
        496,
        71,
        69,
        358,
        226,
        311,
        489,
        185,
        456,
        320,
        235,
        110,
        45,
        432,
        304,
        97,
        308,
        160,
        19,
        275,
        284,
        481,
        142,
        279,
        202,
        453,
        115,
        91,
        390,
        145,
        397,
        297,
        248,
        155,
        246,
        237,
        130,
        319,
        48,
        393,
        495,
        359,
        386,
        14,
        464,
        93,
        151,
        128,
        492,
        70,
        330,
        30,
        305,
        179,
        347,
        276,
        20,
        209,
        484,
        169,
        434,
        64,
        379,
        242,
        52,
        490,
        131,
        124,
        388,
        296,
        244,
        293,
        63,
        148,
        353,
        499,
        385,
        198,
        192,
        153,
        354,
        208,
        172,
        367,
        427,
        392,
        273,
        447,
        225,
        261,
        463,
        462,
        217,
        488,
        61,
        424,
        11,
        300,
        205,
        356,
        440,
        378,
        417,
        102,
        108,
        76,
        399,
        340,
        65,
        6,
        178,
        286,
        450,
        329,
        373,
        352,
        107,
        17,
        92,
        173,
        451,
        180,
        254,
        255,
        74,
        411,
        175,
        129,
        252,
        317,
        211,
        35,
        212,
        272,
        165,
        53,
        218,
        144,
        36,
        230,
        5,
        328,
        29,
        75,
        383,
        8,
        98,
        428,
        104,
        345,
        112,
        422,
        147,
        281,
        215,
        200,
        389,
        333,
        472,
        268,
        491,
        326,
        113,
        223,
        59,
        357,
        150,
        426,
        350,
        95,
        485,
        141,
        474,
        476,
        457,
        229,
        78,
        471,
        195,
        201,
        277,
        406,
        387,
        478,
        27,
        33,
        466,
        288,
        313,
        271,
        398,
        221,
        203,
        32,
        412,
        58,
        41,
        370,
        138,
        21,
        394,
        54,
        368,
        346,
        101,
        245,
        125,
        86,
        96,
        442,
        381,
        60,
        146,
        68,
        380,
        191,
        360,
        423,
        260,
        416,
        314,
        467,
        487,
        425,
        190,
        105,
        479,
        400,
        219,
        149,
        441,
        227,
        448,
        49,
        407,
        161,
        362,
        274,
        186,
        439,
        343,
        136,
        334,
        318,
        263,
        220,
        137,
        298,
        197,
        133,
        251,
        18,
        419,
        285,
        232,
        0,
        470,
        315,
        187,
        291,
        55,
        85,
        207,
        396,
        452,
        132,
        166,
        327,
        174,
        250,
        429,
        167,
        430,
        312,
        283,
        196,
        270,
        236,
        494,
        307,
        299,
        418,
        289,
        231,
        156,
        264,
        123,
        295,
        355,
        342,
        43,
        234,
        460,
        437,
        436,
        253,
        269,
        483,
        214,
        24,
        176,
        42,
        421,
        159,
        369,
        292,
        31,
        391,
        331,
        13,
        100,
        9,
        258,
        384,
        341,
        84,
        449,
        241,
        162,
        266,
        2,
        158,
        361,
        168,
        164,
        188,
        47,
        40,
        497,
        213,
        303,
        88,
        316,
        12,
        322,
        22,
        4,
        216,
        480,
        25,
        363,
        403,
        431,
        72,
        90,
        465,
        408,
        405,
        1,
        376,
        446,
        119,
        46,
        106,
        366,
        337,
        256,
        404,
        163,
        498,
        443,
        10,
        435,
        415,
        344,
        127,
        324,
        81,
        364,
        171,
        414,
        473,
        82,
        224,
        183,
        26,
        310,
        294,
        374,
        16,
        323,
        409,
        372,
        87,
        265,
        233,
        257,
        116,
        122,
        3,
        401,
        243,
        28,
        493,
        336,
        170,
        182,
        77,
        420,
        152,
        44,
        189,
        135,
        23,
        39,
        371,
        37,
        240,
        321,
        454,
        339,
        140,
        455,
        206,
        62,
        56,
        83,
        51,
        193,
        338,
        194,
        482,
        109,
        413,
        139,
        222,
        477,
        349,
        228,
        177,
        301,
        199,
        458,
        302,
        468,
        114,
        375,
        365,
        433,
        103,
        280,
        445,
        15,
        80,
        34,
        134,
        306,
        126,
        111,
        120,
        475,
        247,
        469,
        351,
        438,
        73,
        99,
        402,
        335,
        121,
        50,
        278,
        410,
        79,
        89,
        238,
        461,
        282,
        395,
        118,
        486,
        154,
        181,
        290,
        67,
        143
    ],
    "Global Optimum": 0,
    "Algorithm": "Genetic algorithm",
    "Parameters": {
        "population": 30,
        "offspring": 30,
        "mutation probability": 0.002,
        "crossover probability": 0.9
    },
    "Fitness": 557969,
    "Solution": [
        262,
        377,
        444,
        184,
        38,
        309,
        239,
        325,
        204,
        267,
        57,
        259,
        94,
        382,
        117,
        249,
        459,
        332,
        287,
        157,
        7,
        348,
        66,
        210,
        496,
        71,
        69,
        358,
        226,
        311,
        489,
        185,
        456,
        320,
        235,
        110,
        45,
        432,
        304,
        97,
        308,
        160,
        19,
        275,
        284,
        481,
        142,
        279,
        202,
        453,
        115,
        91,
        390,
        145,
        397,
        297,
        248,
        155,
        246,
        237,
        130,
        319,
        48,
        393,
        495,
        359,
        386,
        14,
        464,
        93,
        151,
        128,
        492,
        70,
        330,
        30,
        305,
        179,
        347,
        276,
        20,
        209,
        484,
        169,
        434,
        64,
        379,
        242,
        52,
        490,
        131,
        124,
        388,
        296,
        244,
        293,
        63,
        148,
        353,
        499,
        385,
        198,
        192,
        153,
        354,
        208,
        172,
        367,
        427,
        392,
        273,
        447,
        225,
        261,
        463,
        462,
        217,
        488,
        61,
        424,
        11,
        300,
        205,
        356,
        440,
        378,
        417,
        102,
        108,
        76,
        399,
        340,
        65,
        6,
        178,
        286,
        450,
        329,
        373,
        352,
        107,
        17,
        92,
        173,
        451,
        180,
        254,
        255,
        74,
        411,
        175,
        129,
        252,
        317,
        211,
        35,
        212,
        272,
        165,
        53,
        218,
        144,
        36,
        230,
        5,
        328,
        29,
        75,
        383,
        8,
        98,
        428,
        104,
        345,
        112,
        422,
        147,
        281,
        215,
        200,
        389,
        333,
        472,
        268,
        491,
        326,
        113,
        223,
        59,
        357,
        150,
        426,
        350,
        95,
        485,
        141,
        474,
        476,
        457,
        229,
        78,
        471,
        195,
        201,
        277,
        406,
        387,
        478,
        27,
        33,
        466,
        288,
        313,
        271,
        398,
        221,
        203,
        32,
        412,
        58,
        41,
        370,
        138,
        21,
        394,
        54,
        368,
        346,
        101,
        245,
        125,
        86,
        96,
        442,
        381,
        60,
        146,
        68,
        380,
        191,
        360,
        423,
        260,
        416,
        314,
        467,
        487,
        425,
        190,
        105,
        479,
        400,
        219,
        149,
        441,
        227,
        448,
        49,
        407,
        161,
        362,
        274,
        186,
        439,
        343,
        136,
        334,
        318,
        263,
        220,
        137,
        298,
        197,
        133,
        251,
        18,
        419,
        285,
        232,
        0,
        470,
        315,
        187,
        291,
        55,
        85,
        207,
        396,
        452,
        132,
        166,
        327,
        174,
        250,
        429,
        167,
        430,
        312,
        283,
        196,
        270,
        236,
        494,
        307,
        299,
        418,
        289,
        231,
        156,
        264,
        123,
        295,
        355,
        342,
        43,
        234,
        460,
        437,
        436,
        253,
        269,
        483,
        214,
        24,
        176,
        42,
        421,
        159,
        369,
        292,
        31,
        391,
        331,
        13,
        100,
        9,
        258,
        384,
        341,
        84,
        449,
        241,
        162,
        266,
        2,
        158,
        361,
        168,
        164,
        188,
        47,
        40,
        497,
        213,
        303,
        88,
        316,
        12,
        322,
        22,
        4,
        216,
        480,
        25,
        363,
        403,
        431,
        72,
        90,
        465,
        408,
        405,
        1,
        376,
        446,
        119,
        46,
        106,
        366,
        337,
        256,
        404,
        163,
        498,
        443,
        10,
        435,
        415,
        344,
        127,
        324,
        81,
        364,
        171,
        414,
        473,
        82,
        224,
        183,
        26,
        310,
        294,
        374,
        16,
        323,
        409,
        372,
        87,
        265,
        233,
        257,
        116,
        122,
        3,
        401,
        243,
        28,
        493,
        336,
        170,
        182,
        77,
        420,
        152,
        44,
        189,
        135,
        23,
        39,
        371,
        37,
        240,
        321,
        454,
        339,
        140,
        455,
        206,
        62,
        56,
        83,
        51,
        193,
        338,
        194,
        482,
        109,
        413,
        139,
        222,
        477,
        349,
        228,
        177,
        301,
        199,
        458,
        302,
        468,
        114,
        375,
        365,
        433,
        103,
        280,
        445,
        15,
        80,
        34,
        134,
        306,
        126,
        111,
        120,
        475,
        247,
        469,
        351,
        438,
        73,
        99,
        402,
        335,
        121,
        50,
        278,
        410,
        79,
        89,
        238,
        461,
        282,
        395,
        118,
        486,
        154,
        181,
        290,
        67,
        143
    ],
    "Nb of functions evaluations": 200010,
    "Computational time in seconds": 806.096873998642,
    "Stopping criterion in evaluations": 200000
}